data;


param d:= 100;
param r:=5;
param p:=0.600000;
param M:=1000;
param U:=
         1         1       -1.455021e+00
         2         1        8.391672e-01
         3         1        1.749146e+00
         4         1       -1.179038e+00
         5         1        9.956821e-02
         6         1       -3.352554e-01
         7         1       -3.281153e-01
         8         1       -1.187540e+00
         9         1        5.743511e-02
        10         1       -1.348781e+00
        11         1       -1.159412e+00
        12         1        5.041019e-01
        13         1       -2.227966e-01
        14         1        1.034777e+00
        15         1        7.915169e-04
        16         1       -1.489672e-01
        17         1        1.532410e+00
        18         1       -1.444091e+00
        19         1       -3.556489e-01
        20         1        1.497404e+00
        21         1       -5.110372e-02
        22         1       -6.408691e-01
        23         1        6.956632e-01
        24         1       -1.038006e+00
        25         1        4.723939e-01
        26         1        1.161758e+00
        27         1        9.494178e-01
        28         1       -8.620775e-01
        29         1        3.241369e-01
        30         1        1.470492e+00
        31         1       -9.709000e-01
        32         1       -3.655009e-01
        33         1        8.531111e-01
        34         1        9.667706e-01
        35         1       -2.177907e-01
        36         1       -7.028799e-02
        37         1       -8.357491e-01
        38         1        4.892070e-01
        39         1       -4.782912e-02
        40         1       -6.017477e-01
        41         1       -1.014633e+00
        42         1       -1.162893e+00
        43         1       -2.619190e+00
        44         1       -8.007675e-01
        45         1        1.788292e-01
        46         1       -5.146838e-01
        47         1        1.727745e+00
        48         1        8.136019e-01
        49         1        1.198161e-01
        50         1        2.252790e-01
        51         1       -8.944532e-01
        52         1        1.074483e+00
        53         1       -2.297432e-02
        54         1       -8.751758e-01
        55         1        7.955059e-02
        56         1       -1.227853e+00
        57         1        6.695731e-01
        58         1        1.735971e-01
        59         1       -1.601977e+00
        60         1       -6.006178e-01
        61         1        7.081227e-01
        62         1       -7.742003e-01
        63         1       -1.120983e+00
        64         1        2.095634e+00
        65         1       -5.341681e-01
        66         1        7.498514e-01
        67         1       -6.818179e-01
        68         1       -8.552621e-01
        69         1       -2.260643e+00
        70         1        1.068473e+00
        71         1       -1.339919e+00
        72         1        9.202287e-01
        73         1        4.572955e-01
        74         1       -1.073297e+00
        75         1        2.079801e+00
        76         1       -1.047250e+00
        77         1        2.194473e-01
        78         1       -5.045288e-02
        79         1        1.286048e+00
        80         1       -1.096402e-01
        81         1       -1.006499e+00
        82         1        9.798741e-01
        83         1        1.906568e+00
        84         1       -1.715090e-01
        85         1       -5.788403e-01
        86         1        1.337862e+00
        87         1        9.144112e-01
        88         1        3.440622e-02
        89         1        8.921070e-02
        90         1       -1.369287e-01
        91         1        7.723716e-01
        92         1       -1.913041e+00
        93         1        1.044108e+00
        94         1        9.803874e-01
        95         1        1.396975e+00
        96         1        9.613624e-02
        97         1       -4.947114e-01
        98         1       -2.304028e-01
        99         1        1.485818e+00
       100         1        4.174308e-01
         1         2        1.205218e-01
         2         2        1.798591e+00
         3         2        4.622756e-01
         4         2       -2.836760e-01
         5         2        4.773469e-01
         6         2        1.555915e-02
         7         2       -5.023864e-01
         8         2        6.397359e-01
         9         2        4.133200e-01
        10         2       -2.097773e+00
        11         2       -1.065446e+00
        12         2       -1.347711e+00
        13         2        1.534918e+00
        14         2        1.512554e-01
        15         2       -7.689178e-01
        16         2       -7.589574e-01
        17         2       -5.744188e-01
        18         2       -4.034469e-01
        19         2       -1.094558e+00
        20         2        1.704582e-01
        21         2       -6.385071e-01
        22         2        7.853652e-01
        23         2        1.343501e+00
        24         2       -9.911221e-01
        25         2       -1.462804e-01
        26         2       -4.561887e-01
        27         2       -1.392669e+00
        28         2        9.055237e-01
        29         2        1.046753e+00
        30         2        5.247669e-01
        31         2       -7.246507e-01
        32         2       -1.315841e+00
        33         2        8.075023e-01
        34         2        1.714980e-01
        35         2        6.431816e-02
        36         2        2.873361e-01
        37         2       -2.640123e+00
        38         2       -1.229223e-01
        39         2        6.336774e-01
        40         2       -1.441083e+00
        41         2        6.879031e-01
        42         2        6.741162e-01
        43         2        1.537275e+00
        44         2        5.062561e-01
        45         2       -1.935819e+00
        46         2       -2.254932e+00
        47         2        1.331457e+00
        48         2       -5.387419e-01
        49         2       -6.644691e-01
        50         2       -1.676102e+00
        51         2        1.647144e-01
        52         2        4.235813e-01
        53         2        2.604338e+00
        54         2       -4.716231e-01
        55         2        2.524646e+00
        56         2       -1.520799e+00
        57         2       -8.415371e-01
        58         2       -3.919182e-01
        59         2        5.099010e-01
        60         2       -5.517491e-01
        61         2       -5.661497e-01
        62         2       -2.014659e+00
        63         2       -5.935134e-01
        64         2        8.185238e-01
        65         2       -9.759121e-02
        66         2        7.028348e-01
        67         2        1.753361e+00
        68         2        1.382767e+00
        69         2        5.042006e-01
        70         2        3.222898e-01
        71         2        5.323448e-01
        72         2       -1.065152e+00
        73         2       -5.702888e-01
        74         2        8.285540e-01
        75         2        1.581803e+00
        76         2       -1.637779e+00
        77         2        3.072209e-01
        78         2        7.617258e-01
        79         2       -2.098536e-01
        80         2        1.511534e+00
        81         2        1.316856e+00
        82         2       -6.127674e-01
        83         2       -1.017780e+00
        84         2       -4.766647e-01
        85         2        2.653386e+00
        86         2       -1.637716e+00
        87         2       -1.018540e+00
        88         2       -2.373552e+00
        89         2        5.262257e-01
        90         2        3.608845e-01
        91         2       -7.962883e-01
        92         2        5.519857e-01
        93         2        2.502669e-01
        94         2       -1.319274e+00
        95         2       -2.827671e+00
        96         2       -1.531715e+00
        97         2       -7.830439e-01
        98         2        7.032205e-01
        99         2       -7.870776e-01
       100         2        1.125326e-01
         1         3       -9.332909e-01
         2         3       -1.376265e+00
         3         3        2.626654e-01
         4         3       -1.249964e+00
         5         3       -3.901625e-01
         6         3        6.956201e-01
         7         3        4.569836e-01
         8         3       -5.971093e-01
         9         3       -1.184941e+00
        10         3        5.626641e-01
        11         3        2.230005e+00
        12         3        8.417845e-01
        13         3        3.530096e-01
        14         3       -2.047914e-01
        15         3        5.686487e-01
        16         3       -1.020948e+00
        17         3       -3.226161e-01
        18         3        1.321608e+00
        19         3        3.217215e-01
        20         3       -7.896265e-01
        21         3       -5.440472e-01
        22         3        2.191102e+00
        23         3       -2.368750e+00
        24         3        2.798210e-01
        25         3       -1.086877e-01
        26         3        1.301003e+00
        27         3       -1.944211e+00
        28         3        1.653903e+00
        29         3        5.797685e-01
        30         3       -3.632087e-01
        31         3       -4.108049e-01
        32         3       -1.173856e+00
        33         3       -1.662038e+00
        34         3       -2.511262e-01
        35         3       -1.821684e-01
        36         3        4.030539e-01
        37         3        1.220132e+00
        38         3       -2.326562e-02
        39         3        4.023317e-01
        40         3       -2.095413e-01
        41         3       -9.994305e-01
        42         3       -7.494420e-01
        43         3        2.061396e+00
        44         3       -2.792114e-01
        45         3        9.884252e-02
        46         3        1.512875e-01
        47         3        3.795132e-01
        48         3       -6.510596e-01
        49         3       -5.554433e-01
        50         3       -5.745502e-01
        51         3        1.036723e-01
        52         3       -2.204908e+00
        53         3       -1.966488e+00
        54         3        1.124183e+00
        55         3        2.225534e-01
        56         3       -5.685918e-01
        57         3       -8.259164e-01
        58         3       -5.176188e-01
        59         3       -6.199069e-01
        60         3       -5.461975e-01
        61         3        6.175174e-02
        62         3        4.496113e-01
        63         3        2.015400e-01
        64         3       -4.969785e-01
        65         3        3.542668e-01
        66         3        1.128597e+00
        67         3       -5.138596e-01
        68         3       -1.496505e+00
        69         3       -4.755049e-01
        70         3        1.105368e+00
        71         3        1.048404e-01
        72         3        1.180883e+00
        73         3       -6.991180e-01
        74         3        3.244137e-01
        75         3        6.603909e-02
        76         3       -2.221465e-01
        77         3       -8.849148e-01
        78         3       -3.505878e-01
        79         3        6.448308e-01
        80         3       -1.509647e-02
        81         3        6.152023e-01
        82         3        1.362082e+00
        83         3        1.835823e-01
        84         3       -1.353702e+00
        85         3       -1.783928e+00
        86         3        1.030714e-01
        87         3       -9.330751e-01
        88         3        2.960645e-01
        89         3       -3.479203e-01
        90         3       -1.134182e+00
        91         3       -6.463508e-02
        92         3       -2.149398e+00
        93         3        5.225323e-01
        94         3       -6.032046e-02
        95         3       -5.185164e-01
        96         3       -5.735639e-02
        97         3        2.382257e-01
        98         3       -1.501233e+00
        99         3       -1.355093e+00
       100         3        4.273773e-01
         1         4       -1.947687e-01
         2         4        1.968819e-01
         3         4        8.953145e-02
         4         4       -1.361668e+00
         5         4       -3.360673e-01
         6         4        1.525324e+00
         7         4       -1.592139e+00
         8         4       -2.537249e-01
         9         4        4.018042e-01
        10         4        5.516785e-01
        11         4        2.302351e-03
        12         4        6.816169e-01
        13         4        4.925670e-02
        14         4       -7.711437e-01
        15         4       -7.676448e-01
        16         4       -1.397428e+00
        17         4       -4.216878e-01
        18         4       -1.230436e+00
        19         4        1.380872e+00
        20         4        5.234280e-01
        21         4        6.340513e-01
        22         4        1.669948e-01
        23         4        8.812381e-03
        24         4       -7.669358e-01
        25         4        7.050535e-01
        26         4       -2.927038e-01
        27         4        2.118103e+00
        28         4        6.637108e-01
        29         4        1.249677e-01
        30         4        1.072252e-02
        31         4       -3.441371e-01
        32         4       -6.785790e-02
        33         4        5.351647e-01
        34         4       -2.201673e-02
        35         4        3.196216e-01
        36         4        8.115291e-01
        37         4        5.976830e-01
        38         4        9.060046e-02
        39         4        8.036177e-01
        40         4        5.169584e-01
        41         4       -8.047483e-03
        42         4       -5.956598e-01
        43         4       -5.225312e-01
        44         4        1.146948e+00
        45         4        5.552605e-01
        46         4        1.176156e+00
        47         4        2.859547e-01
        48         4       -3.818654e-01
        49         4       -1.409539e-01
        50         4        1.970146e+00
        51         4        8.918160e-01
        52         4        9.552149e-01
        53         4       -4.698779e-01
        54         4       -1.046708e+00
        55         4        9.426430e-01
        56         4       -6.412042e-01
        57         4       -3.188820e-01
        58         4       -9.679993e-01
        59         4       -2.598859e-01
        60         4        7.071459e-01
        61         4       -3.879319e-01
        62         4        5.191443e-01
        63         4        1.558490e+00
        64         4       -2.741493e+00
        65         4       -1.105160e+00
        66         4        1.052783e+00
        67         4       -1.894683e-01
        68         4       -2.295771e+00
        69         4       -5.794133e-01
        70         4        5.445395e-01
        71         4       -5.617600e-01
        72         4        5.709295e-01
        73         4        1.722723e+00
        74         4       -3.888941e-01
        75         4        4.802014e-01
        76         4       -7.543194e-01
        77         4       -1.316055e-01
        78         4       -1.120402e+00
        79         4       -1.322760e+00
        80         4       -1.124862e+00
        81         4        1.346972e+00
        82         4        7.257115e-01
        83         4        1.512458e+00
        84         4        1.414089e-01
        85         4       -2.830336e-01
        86         4        4.950714e-01
        87         4        1.125708e+00
        88         4        6.404626e-01
        89         4        3.663446e-02
        90         4       -4.180715e-01
        91         4        1.349877e+00
        92         4       -5.955604e-01
        93         4       -1.802905e+00
        94         4        1.554293e+00
        95         4        3.701020e-01
        96         4        2.368685e-01
        97         4       -7.694319e-01
        98         4       -2.035575e+00
        99         4        8.926254e-01
       100         4        1.609982e+00
         1         5       -1.898293e+00
         2         5       -2.677572e-01
         3         5        5.771281e-01
         4         5        1.119222e+00
         5         5        4.988465e-01
         6         5       -4.560588e-02
         7         5       -4.179202e-01
         8         5        5.863306e-01
         9         5        3.151212e-01
        10         5       -7.752250e-01
        11         5        1.530199e+00
        12         5       -8.414269e-01
        13         5        1.638968e-01
        14         5        1.187441e-01
        15         5        6.534044e-01
        16         5        1.030784e-01
        17         5       -5.346669e-01
        18         5       -1.391873e-01
        19         5        1.108460e+00
        20         5       -1.212396e+00
        21         5       -2.955331e-01
        22         5        3.315155e-01
        23         5       -1.300232e-01
        24         5        2.368471e+00
        25         5       -1.676399e+00
        26         5       -8.851650e-01
        27         5       -1.481975e+00
        28         5        1.592342e-02
        29         5        5.516643e-01
        30         5        7.845580e-01
        31         5       -2.024646e-01
        32         5       -9.383478e-01
        33         5        1.267252e+00
        34         5        5.459005e-01
        35         5        4.084068e-01
        36         5       -6.839272e-01
        37         5       -5.681523e-01
        38         5        1.412164e+00
        39         5        1.451700e+00
        40         5        1.690918e-01
        41         5       -8.931484e-01
        42         5       -2.001467e+00
        43         5        2.086476e+00
        44         5        3.578099e-01
        45         5        1.034425e+00
        46         5        1.351972e+00
        47         5        2.036196e+00
        48         5        1.777641e+00
        49         5       -2.302315e-01
        50         5        1.352931e-01
        51         5       -7.084899e-01
        52         5       -2.255914e+00
        53         5       -1.124840e+00
        54         5        1.482972e-01
        55         5        1.533454e+00
        56         5        2.278735e+00
        57         5       -8.055794e-01
        58         5       -1.036413e+00
        59         5        8.547484e-01
        60         5        1.559604e+00
        61         5        1.681743e-01
        62         5        5.995217e-01
        63         5        4.604363e-01
        64         5       -5.500701e-01
        65         5        1.510570e+00
        66         5       -6.700293e-01
        67         5        1.406371e+00
        68         5       -6.655590e-01
        69         5        3.785100e-01
        70         5        1.675288e+00
        71         5       -1.589414e+00
        72         5       -1.980227e+00
        73         5       -1.809905e+00
        74         5       -3.376564e-01
        75         5       -7.772719e-01
        76         5        6.483834e-01
        77         5        1.579021e-02
        78         5       -1.008108e+00
        79         5        4.986501e-01
        80         5       -1.100862e+00
        81         5        3.131255e-01
        82         5       -4.579938e-01
        83         5       -6.200866e-01
        84         5       -4.805369e-01
        85         5        3.301949e+00
        86         5       -6.979681e-01
        87         5        1.586159e+00
        88         5       -6.378193e-01
        89         5        9.592043e-01
        90         5       -5.527261e-01
        91         5        4.694413e-01
        92         5       -2.735443e-01
        93         5       -2.572100e-01
        94         5       -1.391211e-01
        95         5        1.711605e-01
        96         5       -1.075293e+00
        97         5       -7.337774e-01
        98         5        8.158865e-01
        99         5       -7.444520e-01
       100         5        1.840634e-01
;

param theta:=
    1        6.532215e-01
    2       -2.547655e-01
    3        1.140654e-01
    4        4.166384e-02
    5       -1.446808e+00
;
param X_true:=
    1        1.652385e+00
    2        3.618981e-01
    3        1.534370e-01
    4       -2.503945e+00
    5       -1.034107e+00
    6       -2.784342e-02
    7        4.551642e-01
    8       -1.813798e+00
    9       -6.098853e-01
   10        8.264154e-01
   11       -2.601093e+00
   12        2.095401e+00
   13       -6.692982e-01
   14        4.370064e-01
   15       -6.402519e-01
   16       -2.810848e-01
   17        1.838562e+00
   18       -6.236290e-01
   19       -1.620053e+00
   20        2.580946e+00
   21        4.798778e-01
   22       -9.717444e-01
   23        1.356961e-01
   24       -3.856009e+00
   25        2.832634e+00
   26        2.300511e+00
   27        2.875771e+00
   28       -6.633246e-01
   29       -6.958606e-01
   30       -3.323670e-01
   31       -2.470093e-01
   32        1.295523e+00
   33       -1.529730e+00
   34       -1.047084e-01
   35       -7.521067e-01
   36        9.926558e-01
   37        1.144951e+00
   38       -1.747813e+00
   39       -2.175624e+00
   40       -2.697707e-01
   41        3.838740e-01
   42        1.911341e+00
   43       -5.015251e+00
   44       -1.315534e+00
   45       -8.753341e-01
   46       -1.693991e+00
   47       -2.074756e+00
   48       -2.161841e+00
   49        4.741381e-01
   50        5.245338e-01
   51        4.448182e-01
   52        3.677326e+00
   53        5.930699e-01
   54       -4.862787e-01
   55       -2.823638e+00
   56       -3.730059e+00
   57        1.698398e+00
   58        1.606233e+00
   59       -2.446443e+00
   60       -2.418902e+00
   61        4.796305e-01
   62       -7.403933e-01
   63       -1.039619e+00
   64        1.649190e+00
   65       -2.536314e+00
   66        1.683940e+00
   67       -3.031445e+00
   68       -1.683232e-01
   69       -2.191736e+00
   70       -1.775488e+00
   71        1.480220e+00
   72        3.872166e+00
   73        2.976488e+00
   74       -5.528205e-01
   75        2.191720e+00
   76       -1.214356e+00
   77       -1.603701e-01
   78        1.268046e+00
   79        1.720202e-01
   80        1.002725e+00
   81       -1.461365e+00
   82        1.706007e+00
   83        2.525187e+00
   84        5.282629e-01
   85       -6.071977e+00
   86        2.361583e+00
   87       -1.515923e+00
   88        1.658131e+00
   89       -1.354590e+00
   90        5.015673e-01
   91        2.204976e-01
   92       -1.225396e+00
   93        9.427500e-01
   94        1.343838e+00
   95        1.211697e+00
   96        1.999375e+00
   97        9.512727e-01
   98       -1.708343e+00
   99        2.112810e+00
  100        5.997069e-02
;
param X:=
    1        1.117072e+00
    2        3.618981e-01
    3        1.534370e-01
    4       -2.503945e+00
    5       -1.765826e-01
    6       -2.784342e-02
    7       -8.118413e-01
    8       -2.539409e-01
    9       -6.098853e-01
   10        8.624294e-01
   11       -2.601093e+00
   12       -9.657871e-01
   13       -6.692982e-01
   14        4.370064e-01
   15        2.057054e-01
   16       -2.810848e-01
   17       -1.308230e+00
   18       -4.942219e-01
   19       -1.620053e+00
   20       -5.784002e-01
   21       -2.032314e+00
   22        9.389349e-02
   23        1.356961e-01
   24       -1.756625e+00
   25        2.832634e+00
   26        1.631014e+00
   27        6.504587e-01
   28       -6.633246e-01
   29       -3.806738e-01
   30       -1.750538e-01
   31       -2.470093e-01
   32        1.295523e+00
   33       -1.529730e+00
   34        6.214514e-01
   35        2.731090e+00
   36        1.178580e+00
   37        1.144951e+00
   38       -1.342765e+00
   39       -9.876817e-01
   40       -8.905859e-01
   41        3.823510e-01
   42        7.958523e-01
   43       -5.015251e+00
   44        2.636383e-01
   45        1.803438e-01
   46       -1.693991e+00
   47        2.042837e-01
   48        6.080192e-02
   49       -1.838930e+00
   50        5.245338e-01
   51        4.448182e-01
   52        4.197993e-01
   53        5.930699e-01
   54       -4.862787e-01
   55       -2.823638e+00
   56       -3.730059e+00
   57        2.616102e-01
   58        1.606233e+00
   59       -2.446443e+00
   60        7.943342e-02
   61        4.796305e-01
   62       -1.461362e+00
   63        1.609722e+00
   64       -5.511929e-01
   65       -2.536314e+00
   66       -1.342414e+00
   67        3.922533e-01
   68        1.544736e+00
   69        5.899340e-01
   70        4.808458e-02
   71       -2.036218e+00
   72        3.872166e+00
   73       -9.670522e-01
   74       -1.806831e-01
   75        7.580079e-03
   76       -1.214356e+00
   77       -1.603701e-01
   78       -1.698565e+00
   79        1.600855e+00
   80        1.812838e+00
   81        9.793261e-01
   82        2.050629e-01
   83       -8.634324e-01
   84        2.258475e-03
   85       -5.141627e-01
   86        2.361583e+00
   87       -1.515923e+00
   88       -3.793639e-01
   89       -1.354590e+00
   90       -1.426792e+00
   91       -9.434201e-01
   92       -1.225396e+00
   93       -4.356246e-01
   94        6.093249e-02
   95        1.211697e+00
   96        1.999375e+00
   97       -7.955953e-01
   98       -1.708343e+00
   99        2.112810e+00
  100       -4.004169e-01
;
param outliervec:=
    1    1
    2    0
    3    0
    4    0
    5    1
    6    0
    7    1
    8    1
    9    0
   10    1
   11    0
   12    1
   13    0
   14    0
   15    1
   16    0
   17    1
   18    1
   19    0
   20    1
   21    1
   22    1
   23    0
   24    1
   25    0
   26    1
   27    1
   28    0
   29    1
   30    1
   31    0
   32    0
   33    0
   34    1
   35    1
   36    1
   37    0
   38    1
   39    1
   40    1
   41    1
   42    1
   43    0
   44    1
   45    1
   46    0
   47    1
   48    1
   49    1
   50    0
   51    0
   52    1
   53    0
   54    0
   55    0
   56    0
   57    1
   58    0
   59    0
   60    1
   61    0
   62    1
   63    1
   64    1
   65    0
   66    1
   67    1
   68    1
   69    1
   70    1
   71    1
   72    0
   73    1
   74    1
   75    1
   76    0
   77    0
   78    1
   79    1
   80    1
   81    1
   82    1
   83    1
   84    1
   85    1
   86    0
   87    0
   88    1
   89    0
   90    1
   91    1
   92    0
   93    1
   94    1
   95    0
   96    0
   97    1
   98    0
   99    0
  100    1
;